n_machines = 10;
n_resources = 15;
n_jobs = 150;
horizon = 738;
LB = 73;
n_jobs_per_resource = [10, 10, 10, 10, 10, 10, 10, 10, 10, 10, 10, 10, 10, 10, 10];
duration = [5, 9, 8, 1, 9, 2, 1, 3, 6, 2, 5, 3, 5, 5, 2, 8, 1, 3, 9, 7, 7, 2, 3, 2, 6, 1, 7, 7, 9, 3, 8, 6, 9, 2, 2, 2, 2, 6, 1, 7, 5, 8, 1, 5, 4, 2, 5, 5, 4, 4, 3, 4, 7, 7, 2, 7, 5, 7, 4, 8, 9, 7, 1, 2, 5, 5, 8, 4, 3, 5, 7, 9, 1, 2, 1, 9, 6, 6, 6, 4, 3, 3, 2, 3, 1, 3, 8, 7, 3, 1, 5, 2, 4, 6, 9, 5, 2, 1, 1, 1, 5, 5, 5, 2, 8, 6, 2, 5, 2, 8, 9, 5, 7, 7, 8, 3, 6, 8, 6, 9, 6, 9, 2, 5, 3, 2, 7, 8, 3, 5, 6, 5, 7, 8, 8, 8, 4, 7, 3, 1, 7, 3, 3, 9, 6, 1, 7, 8, 9, 9]